letting n =  10
letting blocks =  [[1, 1], [1, 3], [1, 6], [1, 7], [1, 10], [2, 1], [2, 2], [2, 5], [2, 7], [3, 2], [3, 3], [3, 7], [3, 10], [4, 3], [4, 6], [4, 7], [5, 2], [5, 8], [6, 5], [6, 6], [7, 5], [7, 8], [8, 4], [9, 4], [9, 5], [9, 7], [9, 8], [9, 10], [10, 3], [10, 5], [10, 8], [10, 9]]
